Route #1: 1 83 73 30 44 54 16 45 6 1
Route #2 1 103 25 10 85 76 8 91 1
Route #3 1 105 2 102 98 94 29 104 1
Route #4 1 13 67 80 38 28 20 79 1
Route #5 1 47 72 50 100 12 35 75 1
Route #6 1 22 86 55 14 41 32 95 64 58 1
Route #7 1 65 106 70 18 3 49 84 78 68 1
Route #8 1 15 59 9 37 92 89 87 1
Route #9 1 19 42 11 21 17 33 74 36 1
Route #10 1 48 66 71 7 82 51 40 1
Route #11 1 62 81 5 99 24 56 4 43 90 1
Route #12 1 31 39 60 96 69 57 26 1
Route #13 1 34 63 27 93 53 23 1
Route #14 1 46 101 52 77 88 61 97 1
Cost: 27124